(set-logic QF_AUFBV)
(declare-fun bvlambda_1_ () (_ BitVec 1))
(declare-fun bvlambda_2_ () (_ BitVec 1))
(declare-fun bvlambda_3_ () (_ BitVec 11))
(declare-fun bvlambda_4_ () (_ BitVec 1))
(declare-fun bvlambda_5_ () (_ BitVec 3))
(declare-fun a45 () (Array (_ BitVec 10) (_ BitVec 11)))
(declare-fun a46 () (Array (_ BitVec 8) (_ BitVec 11)))
(declare-fun a47 () (Array (_ BitVec 1) (_ BitVec 5)))
(declare-fun a48 () (Array (_ BitVec 8) (_ BitVec 9)))
(assert
(let (($e1 (_ bv0 1)))
(let (($e2 (_ bv346 10)))
(let (($e3 (_ bv0 3)))
(let (($e4 (_ bv28 5)))
(let (($e5 (_ bv3476 15)))
(let (($e6 (_ bv4828 16)))
(let (($e7 (_ bv0 15)))
(let (($e8 (_ bv3788 14)))
(let (($e9 (_ bv6 15)))
(let (($e10 (_ bv0 4)))
(let (($e11 (_ bv0 10)))
(let (($e12 (_ bv38624 16)))
(let (($e13 (_ bv0 2)))
(let (($e14 (_ bv30 5)))
(let (($e15 (_ bv26 5)))
(let (($e16 (_ bv158 8)))
(let (($e17 (_ bv234 8)))
(let (($e18 (_ bv940 10)))
(let (($e19 (_ bv0 5)))
(let (($e20 (_ bv252 8)))
(let (($e21 (_ bv70 8)))
(let (($e22 (_ bv0 11)))
(let (($e23 (_ bv0 9)))
(let (($e24 (_ bv0 6)))
(let (($e25 (_ bv22 9)))
(let (($e26 (_ bv1932 16)))
(let (($e27 (_ bv64232 16)))
(let (($e28 (_ bv0 7)))
(let (($e29 (_ bv0 14)))
(let (($e30 (_ bv1480 13)))
(let (($e31 (_ bv4 5)))
(let (($e32 (_ bv0 13)))
(let (($e33 (_ bv10 15)))
(let (($e34 (_ bv0 8)))
(let (($e35 (_ bv1932 15)))
(let (($e36 (_ bv610 13)))
(let (($e37 (_ bv250 9)))
(let (($e38 (_ bv31994 15)))
(let (($e39 (_ bv346 9)))
(let (($e49 (concat $e3 bvlambda_1_)))
(let (($e50 (concat $e49 bvlambda_2_)))
(let (($e51 (concat (bvnot $e3) bvlambda_1_)))
(let (($e52 (concat $e51 bvlambda_2_)))
(let (($e53 (ite (= #b1 bvlambda_1_) $e52 $e50)))
(let (($e54 (concat $e24 $e53)))
(let (($e55 (concat (bvnot $e24) $e53)))
(let (($e56 ((_ extract 4 4) $e53)))
(let (($e57 (ite (= #b1 $e56) $e55 $e54)))
(let (($e58 (select a45 $e18)))
(let (($e59 (ite (= $e58 $e57) #b1 #b0)))
(let (($e60 (concat (bvnot $e13) (bvnot $e59))))
(let (($e61 (concat $e13 (bvnot $e59))))
(let (($e62 (ite (= #b1 $e59) $e61 $e60)))
(let (($e63 (concat $e1 $e62)))
(let (($e64 (bvshl $e63  ((_ zero_extend 2) (bvnot $e13)))))
(let (($e65 ((_ extract 1 0) $e64)))
(let (($e66 (concat $e23 $e53)))
(let (($e67 (concat (bvnot $e23) $e53)))
(let (($e68 (ite (= #b1 $e56) $e67 $e66)))
(let (($e69 ((_ extract 12 0) $e68)))
(let (($e70 (ite (bvult $e30 $e69) #b1 #b0)))
(let (($e71 ((_ extract 13 13) $e68)))
(let (($e72 (bvand (bvnot $e71) $e70)))
(let (($e73 (concat $e1 (bvnot $e72))))
(let (($e74 (ite (bvult $e73 $e65) #b1 #b0)))
(let (($e75 ((_ extract 2 2) $e64)))
(let (($e76 (bvand (bvnot $e75) $e74)))
(let (($e77 (concat (bvnot $e32) (bvnot $e59))))
(let (($e78 (concat $e32 (bvnot $e59))))
(let (($e79 (ite (= #b1 $e59) $e78 $e77)))
(let (($e80 ((_ extract 12 0) $e79)))
(let (($e81 (ite (bvult $e80 (bvnot $e36)) #b1 #b0)))
(let (($e82 ((_ extract 13 13) $e79)))
(let (($e83 (bvand $e82 $e81)))
(let (($e84 (ite (= $e83 $e76) #b1 #b0)))
(let (($e85 (concat (bvnot $e23) (bvnot $e72))))
(let (($e86 (concat $e23 (bvnot $e72))))
(let (($e87 (ite (= #b1 $e72) $e86 $e85)))
(let (($e88 ((_ extract 8 0) $e87)))
(let (($e89 (ite (bvult (bvnot $e37) $e88) #b1 #b0)))
(let (($e90 ((_ extract 9 9) $e87)))
(let (($e91 (bvand $e90 (bvnot $e89))))
(let (($e92 (select a48 (bvnot $e16))))
(let (($e93 (concat $e28 $e92)))
(let (($e94 (bvurem $e93 $e26)))
(let (($e95 ((_ extract 14 0) $e94)))
(let (($e96 (ite (= (bvnot $e7) $e95) #b1 #b0)))
(let (($e97 ((_ extract 15 15) $e94)))
(let (($e98 (bvand $e97 (bvnot $e96))))
(let (($e99 (bvand $e98 (bvnot $e91))))
(let (($e100 (concat $e10 $e58)))
(let (($e101 (bvand $e9 $e100)))
(let (($e102 (bvand (bvnot $e9) (bvnot $e100))))
(let (($e103 (bvand (bvnot $e102) (bvnot $e101))))
(let (($e104 (ite (bvult $e35 (bvnot $e103)) #b1 #b0)))
(let (($e105 (bvand $e104 $e99)))
(let (($e106 (bvand $e105 $e84)))
(let (($e107 (concat bvlambda_4_ bvlambda_5_)))
(let (($e108 (bvlshr (bvnot $e27)  ((_ zero_extend 12) $e107))))
(let (($e109 ((_ extract 14 0) $e108)))
(let (($e110 (ite (= $e22 bvlambda_3_) #b1 #b0)))
(let (($e111 (ite (= #b1 $e110) $e109 $e7)))
(let (($e112 (ite (bvult $e111 $e33) #b1 #b0)))
(let (($e113 (select a47 (bvnot $e1))))
(let (($e114 (ite (= (bvnot $e19) $e113) #b1 #b0)))
(let (($e115 (ite (= $e114 $e112) #b1 #b0)))
(let (($e116 (store a47 $e1 (bvnot $e14))))
(let (($e117 (store $e116 bvlambda_4_ (bvnot $e15))))
(let (($e118 (select $e117 (bvnot $e1))))
(let (($e119 (concat $e10 $e118)))
(let (($e120 (concat (bvnot $e10) $e118)))
(let (($e121 ((_ extract 4 4) $e118)))
(let (($e122 (ite (= #b1 $e121) $e120 $e119)))
(let (($e123 (concat $e13 $e122)))
(let (($e124 (concat (bvnot $e13) $e122)))
(let (($e125 ((_ extract 8 8) $e122)))
(let (($e126 (ite (= #b1 $e125) $e124 $e123)))
(let (($e127 (select a46 (bvnot $e17))))
(let (($e128 (ite (bvult (bvnot $e127) $e126) #b1 #b0)))
(let (($e129 (bvand $e128 (bvnot $e115))))
(let (($e130 (concat $e23 $e113)))
(let (($e131 (ite (bvult (bvnot $e8) $e130) #b1 #b0)))
(let (($e132 (concat (bvnot $e34) (bvnot $e131))))
(let (($e133 (concat $e34 (bvnot $e131))))
(let (($e134 (ite (= #b1 $e131) $e133 $e132)))
(let (($e135 (ite (bvult $e122 $e134) #b1 #b0)))
(let (($e136 (bvand (bvnot $e135) $e129)))
(let (($e137 (bvand $e136 $e106)))
(let (($e138 (bvand (bvnot $e136) (bvnot $e106))))
(let (($e139 ((_ extract 7 0) $e92)))
(let (($e140 (ite (bvult $e139 $e20) #b1 #b0)))
(let (($e141 ((_ extract 8 8) $e92)))
(let (($e142 (bvand $e141 $e140)))
(let (($e143 (bvand $e142 (bvnot $e135))))
(let (($e144 (select a48 $e20)))
(let (($e145 (concat $e13 $e144)))
(let (($e146 (concat (bvnot $e13) $e144)))
(let (($e147 ((_ extract 8 8) $e144)))
(let (($e148 (ite (= #b1 $e147) $e146 $e145)))
(let (($e149 (ite (= $e22 $e148) #b1 #b0)))
(let (($e150 (concat $e29 $e149)))
(let (($e151 (concat (bvnot $e29) $e149)))
(let (($e152 (ite (= #b1 $e149) $e151 $e150)))
(let (($e153 (bvand (bvnot $e5) $e152)))
(let (($e154 (bvand $e5 (bvnot $e152))))
(let (($e155 (bvand (bvnot $e154) (bvnot $e153))))
(let (($e156 ((_ extract 13 0) $e155)))
(let (($e157 (ite (= $e29 $e156) #b1 #b0)))
(let (($e158 ((_ extract 14 14) $e155)))
(let (($e159 (bvand (bvnot $e158) (bvnot $e157))))
(let (($e160 (bvand (bvnot $e159) $e135)))
(let (($e161 (bvand (bvnot $e160) (bvnot $e143))))
(let (($e162 (ite (bvult $e111 (bvnot $e103)) #b1 #b0)))
(let (($e163 (bvand $e162 $e161)))
(let (($e164 (bvand (bvnot $e162) (bvnot $e161))))
(let (($e165 (bvand (bvnot $e164) (bvnot $e163))))
(let (($e166 (concat bvlambda_3_ bvlambda_4_)))
(let (($e167 (concat $e166 bvlambda_5_)))
(let (($e168 (ite (bvult $e167 (bvnot $e38)) #b1 #b0)))
(let (($e169 (bvand $e168 $e165)))
(let (($e170 (bvand (bvnot $e168) (bvnot $e165))))
(let (($e171 (bvand (bvnot $e170) (bvnot $e169))))
(let (($e172 (bvadd (bvnot $e14) (bvnot $e53))))
(let (($e173 (ite (= #b1 $e56) $e172 $e53)))
(let (($e174 (bvurem $e173 $e31)))
(let (($e175 (bvadd (bvnot $e14) (bvnot $e174))))
(let (($e176 (ite (= #b1 $e56) $e175 $e19)))
(let (($e177 (bvadd $e4 $e174)))
(let (($e178 (ite (= $e19 $e174) #b1 #b0)))
(let (($e179 (bvand (bvnot $e56) (bvnot $e178))))
(let (($e180 (ite (= #b1 $e179) $e177 $e19)))
(let (($e181 (bvand (bvnot $e180) (bvnot $e176))))
(let (($e182 (concat $e22 (bvnot $e181))))
(let (($e183 (ite (bvult $e12 $e182) #b1 #b0)))
(let (($e184 (ite (= $e19 $e113) #b1 #b0)))
(let (($e185 (concat (bvnot $e34) (bvnot $e184))))
(let (($e186 (concat $e34 (bvnot $e184))))
(let (($e187 (ite (= #b1 $e184) $e186 $e185)))
(let (($e188 (ite (bvult $e187 $e25) #b1 #b0)))
(let (($e189 (ite (= $e188 (bvnot $e183)) #b1 #b0)))
(let (($e190 (ite (= $e39 $e122) #b1 #b0)))
(let (($e191 (concat $e7 $e149)))
(let (($e192 (concat (bvnot $e7) $e149)))
(let (($e193 (ite (= #b1 $e149) $e192 $e191)))
(let (($e194 (ite (bvult (bvnot $e6) $e193) #b1 #b0)))
(let (($e195 (ite (= $e194 (bvnot $e190)) #b1 #b0)))
(let (($e196 (bvand (bvnot $e195) (bvnot $e189))))
(let (($e197 (ite (= $e3 bvlambda_5_) #b1 #b0)))
(let (($e198 (bvand (bvnot bvlambda_4_) $e110)))
(let (($e199 (bvand $e198 $e197)))
(let (($e200 (ite (= (bvnot $e3) bvlambda_5_) #b1 #b0)))
(let (($e201 (ite (= (bvnot $e22) bvlambda_3_) #b1 #b0)))
(let (($e202 (bvand bvlambda_4_ $e201)))
(let (($e203 (bvand $e202 $e200)))
(let (($e204 (select a46 $e21)))
(let (($e205 ((_ extract 9 0) $e204)))
(let (($e206 (ite (bvult $e2 $e205) #b1 #b0)))
(let (($e207 (bvand $e206 $e59)))
(let (($e208 ((_ extract 10 10) $e204)))
(let (($e209 (ite (= $e11 $e205) #b1 #b0)))
(let (($e210 (concat $e11 $e113)))
(let (($e211 (concat (bvnot $e11) $e113)))
(let (($e212 ((_ extract 4 4) $e113)))
(let (($e213 (ite (= #b1 $e212) $e211 $e210)))
(let (($e214 (ite (bvult $e213 (bvnot $e103)) #b1 #b0)))
(let (($e215 (ite (= $e204 $e22) #b1 #b0)))
(let (($e216 (ite (= $e204 (bvnot $e22)) #b1 #b0)))
(let (($e217 (bvand (bvnot $e216) (bvnot $e215))))
(let (($e218 (bvand $e217 $e214)))
(let (($e219 (bvand $e218 (bvnot $e209))))
(let (($e220 (bvand $e219 (bvnot $e208))))
(let (($e221 (bvand $e220 (bvnot $e207))))
(let (($e222 (bvand $e221 (bvnot $e203))))
(let (($e223 (bvand $e222 (bvnot $e199))))
(let (($e224 (bvand $e223 (bvnot $e196))))
(let (($e225 (bvand $e224 (bvnot $e171))))
(let (($e226 (bvand $e225 (bvnot $e138))))
(let (($e227 (bvand $e226 (bvnot $e137))))
 (not (= $e227 #b0)))))))))))))))))))))))))))))))))))))))))))))))))))))))))))))))))))))))))))))))))))))))))))))))))))))))))))))))))))))))))))))))))))))))))))))))))))))))))))))))))))))))))))))))))))))))))))))))))))))))))))))))))))))))))))))
(check-sat)
(exit)
